jobs  (incl. supersource/sink ):	102
RESOURCES
- renewable                 : 4 R
- nonrenewable              : 4 N
- doubly constrained        : 0 D
************************************************************************
PRECEDENCE RELATIONS:
jobnr.    #modes  #successors   successors
1	1	29		2 3 4 5 6 7 8 9 10 11 12 13 14 15 16 17 18 20 21 22 24 29 30 33 34 36 41 45 56 
2	9	16		101 95 72 70 68 67 65 63 62 59 58 57 42 38 32 19 
3	9	14		101 97 95 71 70 67 64 57 55 51 47 28 27 23 
4	9	18		101 100 96 95 90 72 71 70 68 67 65 64 61 55 54 49 47 32 
5	9	15		101 100 99 97 96 95 85 72 71 65 59 57 55 47 26 
6	9	13		101 99 98 72 69 67 64 62 60 55 47 43 23 
7	9	12		100 96 74 70 69 65 64 54 40 37 32 31 
8	9	14		99 96 73 70 69 67 64 61 57 49 47 43 39 31 
9	9	10		101 71 67 66 59 52 44 42 39 28 
10	9	15		98 96 93 70 69 68 67 66 65 53 52 48 47 40 39 
11	9	14		100 96 95 93 91 72 66 61 60 50 49 47 40 35 
12	9	13		101 100 99 87 67 64 60 59 57 54 50 49 31 
13	9	12		100 99 96 95 74 70 67 64 54 47 38 31 
14	9	17		99 94 93 90 78 70 67 66 65 64 62 58 57 55 54 52 39 
15	9	13		101 96 91 86 74 71 66 62 61 54 52 43 37 
16	9	20		100 99 98 97 93 89 88 86 85 84 71 70 69 68 67 66 65 64 53 52 
17	9	7		100 98 96 61 58 57 25 
18	9	16		101 96 95 94 92 90 88 85 84 70 68 67 64 62 46 42 
19	9	10		100 98 97 93 88 73 64 61 54 31 
20	9	18		93 92 89 88 86 85 81 72 71 70 69 68 67 65 64 61 54 53 
21	9	17		99 98 94 92 90 89 88 87 86 85 72 71 68 67 64 54 52 
22	9	10		97 93 89 85 79 71 68 53 52 38 
23	9	6		100 96 93 79 61 31 
24	9	15		99 98 97 91 90 88 87 86 80 71 68 67 65 58 52 
25	9	6		93 88 79 73 68 31 
26	9	12		94 93 89 87 86 83 73 70 67 62 54 53 
27	9	5		88 87 79 74 31 
28	9	13		100 99 96 92 89 86 84 83 72 69 68 65 53 
29	9	14		98 94 90 88 84 82 80 78 74 70 67 66 58 52 
30	9	12		100 99 95 93 88 84 82 79 68 64 63 52 
31	9	9		94 92 89 86 85 84 82 53 52 
32	9	11		99 98 93 91 88 86 84 80 78 66 52 
33	9	10		99 97 91 89 88 87 82 68 67 52 
34	9	9		100 91 89 86 82 80 67 61 52 
35	9	12		99 88 86 85 84 81 76 75 71 68 67 65 
36	9	13		97 92 90 88 86 85 82 81 80 79 77 70 68 
37	9	13		98 97 94 90 87 85 84 83 80 78 77 76 67 
38	9	10		91 90 86 82 81 80 78 75 69 61 
39	9	12		100 97 92 89 88 87 86 85 80 77 76 75 
40	9	8		99 89 85 79 78 77 75 62 
41	9	10		100 98 95 89 86 80 79 77 76 75 
42	9	9		99 98 93 82 81 79 78 77 69 
43	9	9		93 92 90 88 84 83 80 79 78 
44	9	9		100 91 89 88 85 82 78 76 75 
45	9	6		92 88 80 75 69 66 
46	9	4		99 80 79 52 
47	9	7		94 92 88 84 82 81 78 
48	9	7		92 83 82 81 79 77 75 
49	9	6		98 83 82 80 76 75 
50	9	6		89 88 78 77 76 75 
51	9	6		96 94 90 80 76 75 
52	9	5		83 81 77 76 75 
53	9	5		91 90 80 78 76 
54	9	5		84 82 79 77 75 
55	9	5		89 83 81 77 75 
56	9	5		94 87 85 78 76 
57	9	4		81 80 79 75 
58	9	4		85 83 77 76 
59	9	4		93 84 83 75 
60	9	3		84 77 68 
61	9	3		87 84 77 
62	9	3		81 80 76 
63	9	3		89 86 85 
64	9	2		76 75 
65	9	2		82 77 
66	9	2		79 76 
67	9	1		79 
68	9	1		78 
69	9	1		87 
70	9	1		75 
71	9	1		82 
72	9	1		75 
73	9	1		78 
74	9	1		75 
75	9	1		102 
76	9	1		102 
77	9	1		102 
78	9	1		102 
79	9	1		102 
80	9	1		102 
81	9	1		102 
82	9	1		102 
83	9	1		102 
84	9	1		102 
85	9	1		102 
86	9	1		102 
87	9	1		102 
88	9	1		102 
89	9	1		102 
90	9	1		102 
91	9	1		102 
92	9	1		102 
93	9	1		102 
94	9	1		102 
95	9	1		102 
96	9	1		102 
97	9	1		102 
98	9	1		102 
99	9	1		102 
100	9	1		102 
101	9	1		102 
102	1	0		
************************************************************************
REQUESTS/DURATIONS
jobnr.	mode	dur	R1	R2	R3	R4	N1	N2	N3	N4	
------------------------------------------------------------------------
1	1	0	0	0	0	0	0	0	0	0	
2	1	1	4	5	4	2	25	23	29	25	
	2	2	4	4	4	2	21	22	27	24	
	3	8	4	4	4	2	20	22	27	24	
	4	9	4	4	4	2	17	20	26	24	
	5	12	4	3	3	2	16	20	24	23	
	6	14	4	3	3	2	15	19	24	22	
	7	16	4	3	3	2	14	18	23	22	
	8	18	4	2	3	2	11	17	21	21	
	9	30	4	2	3	2	9	15	20	21	
3	1	10	3	4	1	3	28	22	22	27	
	2	15	3	4	1	3	25	21	20	25	
	3	19	3	3	1	3	21	18	19	21	
	4	20	3	3	1	3	20	17	19	20	
	5	23	3	2	1	3	17	15	17	17	
	6	24	3	2	1	2	15	12	15	15	
	7	25	3	1	1	2	11	12	15	13	
	8	26	3	1	1	2	10	9	12	12	
	9	28	3	1	1	2	9	7	11	9	
4	1	1	3	4	4	3	19	20	23	24	
	2	4	2	3	4	3	19	19	23	23	
	3	6	2	3	4	3	17	18	23	20	
	4	11	2	3	4	3	15	17	22	18	
	5	16	2	2	3	3	15	17	22	18	
	6	18	1	2	3	3	14	16	22	15	
	7	26	1	2	2	3	12	16	21	11	
	8	28	1	2	2	3	10	15	21	10	
	9	29	1	2	2	3	9	14	21	7	
5	1	1	5	4	5	4	17	21	27	18	
	2	6	4	4	5	3	14	20	26	18	
	3	7	4	4	5	3	13	19	25	17	
	4	11	4	3	5	3	11	19	25	17	
	5	16	4	3	5	3	10	17	24	16	
	6	18	4	2	5	3	10	16	24	16	
	7	21	4	2	5	3	9	13	24	15	
	8	22	4	1	5	3	6	13	23	15	
	9	27	4	1	5	3	6	12	23	15	
6	1	7	4	3	5	4	23	28	25	16	
	2	9	4	3	4	4	22	27	24	14	
	3	10	4	3	4	3	20	27	22	13	
	4	11	4	3	3	3	19	26	20	11	
	5	13	4	3	3	3	19	26	18	9	
	6	15	4	2	3	2	17	26	18	7	
	7	17	4	2	3	2	17	25	15	7	
	8	18	4	2	2	1	15	25	15	4	
	9	23	4	2	2	1	15	24	13	3	
7	1	2	3	4	3	2	15	18	9	17	
	2	5	3	4	2	2	13	18	9	16	
	3	10	3	3	2	2	13	16	7	13	
	4	11	3	3	2	2	12	16	7	11	
	5	12	3	3	1	2	12	15	6	10	
	6	17	3	2	1	2	11	15	5	10	
	7	19	3	2	1	2	11	14	4	8	
	8	26	3	1	1	2	10	13	3	4	
	9	29	3	1	1	2	9	12	3	3	
8	1	2	4	4	4	4	28	20	19	29	
	2	9	3	3	3	3	27	20	17	28	
	3	12	3	3	3	3	27	20	17	26	
	4	18	3	3	3	3	27	20	17	25	
	5	20	3	2	3	2	27	20	15	24	
	6	26	3	2	3	2	27	19	15	22	
	7	27	3	2	3	1	27	19	14	20	
	8	28	3	2	3	1	27	19	13	20	
	9	29	3	2	3	1	27	19	13	19	
9	1	3	4	2	2	5	29	20	28	25	
	2	7	4	2	2	4	24	20	27	23	
	3	8	4	2	2	4	22	20	26	22	
	4	19	4	2	2	4	22	20	26	17	
	5	20	4	2	2	4	19	20	26	16	
	6	21	4	2	2	4	15	19	25	12	
	7	22	4	2	2	4	13	19	24	8	
	8	23	4	2	2	4	12	19	24	7	
	9	30	4	2	2	4	10	19	24	2	
10	1	3	1	4	3	2	28	3	17	21	
	2	4	1	3	3	1	27	3	16	17	
	3	10	1	3	3	1	26	3	16	15	
	4	11	1	2	3	1	26	3	15	13	
	5	21	1	2	2	1	25	2	13	12	
	6	23	1	2	2	1	24	2	13	12	
	7	24	1	2	2	1	23	2	11	9	
	8	28	1	1	2	1	23	2	10	7	
	9	29	1	1	2	1	22	2	9	5	
11	1	2	2	2	4	4	26	27	23	26	
	2	13	2	2	4	3	20	24	22	26	
	3	18	2	2	4	3	18	23	22	26	
	4	21	2	2	4	3	16	21	21	25	
	5	22	2	2	4	2	14	18	21	25	
	6	23	2	2	4	2	9	12	21	24	
	7	24	2	2	4	1	7	10	20	23	
	8	27	2	2	4	1	4	7	20	23	
	9	28	2	2	4	1	2	6	20	23	
12	1	1	1	2	3	3	26	29	29	11	
	2	4	1	1	3	2	23	26	26	10	
	3	8	1	1	3	2	19	20	23	8	
	4	14	1	1	3	2	18	17	21	8	
	5	18	1	1	3	2	15	14	20	5	
	6	20	1	1	3	2	10	12	16	4	
	7	21	1	1	3	2	10	8	15	4	
	8	24	1	1	3	2	8	8	13	3	
	9	30	1	1	3	2	5	2	10	1	
13	1	2	4	3	4	5	25	18	18	21	
	2	7	3	3	3	4	24	16	17	20	
	3	9	3	3	3	4	24	14	16	19	
	4	12	3	3	3	3	23	12	16	18	
	5	15	3	3	3	3	23	11	14	17	
	6	19	2	3	3	3	22	10	14	16	
	7	24	2	3	3	2	22	7	14	14	
	8	25	2	3	3	2	20	7	13	13	
	9	26	2	3	3	2	20	4	12	12	
14	1	2	4	4	3	2	25	27	7	30	
	2	3	3	4	3	2	23	26	7	25	
	3	6	3	4	3	2	23	26	6	25	
	4	8	3	4	3	2	21	26	6	22	
	5	11	2	4	3	2	21	26	5	21	
	6	13	2	4	3	2	20	26	4	18	
	7	19	2	4	3	2	19	26	4	17	
	8	24	2	4	3	2	17	26	3	15	
	9	30	2	4	3	2	17	26	2	12	
15	1	1	5	2	2	4	25	30	20	29	
	2	13	4	2	1	4	23	29	20	26	
	3	14	4	2	1	4	22	29	20	25	
	4	20	4	2	1	4	22	28	20	24	
	5	21	3	1	1	4	21	28	20	24	
	6	22	3	1	1	4	20	28	20	23	
	7	23	3	1	1	4	18	27	20	22	
	8	26	3	1	1	4	18	27	20	20	
	9	29	3	1	1	4	16	27	20	19	
16	1	1	3	4	4	3	20	10	27	24	
	2	6	3	3	4	3	19	9	22	23	
	3	12	3	3	4	3	19	8	22	23	
	4	13	3	2	4	3	18	8	20	23	
	5	19	3	2	3	2	17	7	16	22	
	6	24	3	2	3	2	15	7	15	22	
	7	25	3	2	2	2	14	7	14	22	
	8	29	3	1	2	2	14	6	11	22	
	9	30	3	1	2	2	13	6	9	22	
17	1	6	3	1	2	5	9	22	28	28	
	2	7	3	1	2	4	8	22	28	26	
	3	8	3	1	2	4	7	22	28	25	
	4	9	3	1	2	3	5	22	27	22	
	5	10	2	1	1	3	4	22	26	21	
	6	11	2	1	1	3	4	22	26	20	
	7	20	2	1	1	3	2	22	25	18	
	8	22	2	1	1	2	2	22	25	17	
	9	26	2	1	1	2	1	22	25	16	
18	1	2	4	3	3	5	3	23	22	26	
	2	3	4	3	3	4	3	21	22	26	
	3	6	4	3	3	4	3	16	19	26	
	4	11	3	3	3	4	3	15	19	25	
	5	12	3	3	3	3	2	13	17	25	
	6	14	3	3	3	3	2	9	16	24	
	7	15	2	3	3	3	2	8	14	23	
	8	21	2	3	3	3	1	4	12	23	
	9	24	2	3	3	3	1	4	12	22	
19	1	12	3	2	3	5	27	16	9	17	
	2	13	3	2	3	4	25	16	8	17	
	3	19	3	2	3	4	24	16	8	17	
	4	20	3	2	2	3	22	15	8	16	
	5	21	3	2	2	3	21	14	7	16	
	6	24	3	2	2	3	19	14	7	15	
	7	27	3	2	2	2	18	13	7	14	
	8	28	3	2	1	2	17	13	7	14	
	9	30	3	2	1	2	15	13	7	14	
20	1	1	5	5	4	3	27	22	13	1	
	2	2	4	5	4	3	25	21	13	1	
	3	5	4	5	4	3	23	20	13	1	
	4	6	4	5	3	3	22	18	13	1	
	5	7	4	5	3	3	19	17	13	1	
	6	10	3	5	3	3	15	16	12	1	
	7	21	3	5	2	3	14	16	12	1	
	8	23	3	5	2	3	11	14	12	1	
	9	26	3	5	2	3	8	13	12	1	
21	1	5	1	3	3	2	24	17	21	16	
	2	6	1	3	2	2	22	16	19	16	
	3	7	1	3	2	2	22	15	16	15	
	4	12	1	3	2	2	21	15	15	12	
	5	13	1	2	2	2	20	14	12	10	
	6	16	1	2	2	2	20	14	9	9	
	7	25	1	2	2	2	19	13	6	7	
	8	29	1	2	2	2	17	13	4	7	
	9	30	1	2	2	2	17	13	2	5	
22	1	1	3	3	4	4	9	12	15	18	
	2	2	3	2	3	4	9	10	14	17	
	3	6	3	2	3	4	7	10	12	16	
	4	8	3	2	2	3	6	10	11	16	
	5	10	2	1	2	3	6	8	9	15	
	6	13	2	1	2	3	6	8	7	14	
	7	14	2	1	2	3	5	8	4	14	
	8	18	2	1	1	2	3	7	2	14	
	9	27	2	1	1	2	3	6	1	13	
23	1	4	2	4	3	4	6	22	13	15	
	2	6	2	4	3	4	6	22	12	15	
	3	7	2	4	3	4	6	22	11	14	
	4	11	2	4	2	3	6	22	11	14	
	5	14	2	4	2	3	6	21	9	13	
	6	15	2	4	2	3	6	21	8	13	
	7	18	2	4	1	3	6	20	6	13	
	8	24	2	4	1	2	6	20	5	12	
	9	28	2	4	1	2	6	20	4	12	
24	1	9	2	5	5	4	24	30	17	25	
	2	10	1	4	4	4	22	29	16	24	
	3	11	1	4	4	4	18	29	15	22	
	4	16	1	4	4	4	16	29	12	19	
	5	17	1	3	4	4	14	29	10	13	
	6	19	1	3	4	4	10	28	8	12	
	7	20	1	3	4	4	6	28	5	9	
	8	22	1	3	4	4	6	28	3	5	
	9	26	1	3	4	4	2	28	1	2	
25	1	1	3	4	2	2	29	29	27	16	
	2	3	3	4	1	1	28	27	26	15	
	3	6	3	4	1	1	28	23	24	11	
	4	16	3	3	1	1	28	21	24	10	
	5	24	3	3	1	1	27	15	22	9	
	6	27	3	3	1	1	27	13	21	7	
	7	28	3	2	1	1	27	9	20	4	
	8	29	3	2	1	1	26	7	20	4	
	9	30	3	2	1	1	26	6	18	2	
26	1	2	4	5	3	3	26	13	27	23	
	2	3	4	4	3	3	25	10	25	23	
	3	4	4	4	3	3	23	9	25	22	
	4	5	3	4	2	3	20	9	24	19	
	5	9	2	4	2	2	19	6	23	18	
	6	10	2	3	2	2	17	6	23	18	
	7	21	1	3	2	2	14	5	22	17	
	8	22	1	3	1	2	12	2	22	14	
	9	30	1	3	1	2	11	1	21	14	
27	1	3	2	4	3	5	20	23	27	22	
	2	8	2	3	2	4	19	23	25	21	
	3	9	2	3	2	4	19	23	24	21	
	4	10	2	3	2	3	18	22	20	20	
	5	16	2	3	2	3	17	22	19	18	
	6	19	2	2	1	3	17	22	14	17	
	7	20	2	2	1	2	17	22	12	16	
	8	27	2	2	1	2	16	21	9	15	
	9	30	2	2	1	2	16	21	8	15	
28	1	2	1	2	5	4	28	14	28	20	
	2	4	1	2	4	4	25	13	26	19	
	3	5	1	2	4	4	25	12	22	19	
	4	6	1	2	4	4	22	12	19	18	
	5	8	1	2	3	4	22	10	19	17	
	6	9	1	2	3	4	20	10	15	17	
	7	16	1	2	2	4	19	9	12	17	
	8	22	1	2	2	4	16	8	11	16	
	9	26	1	2	2	4	15	6	9	16	
29	1	1	5	4	4	5	20	27	7	19	
	2	4	4	4	3	4	20	23	7	16	
	3	5	4	4	3	4	16	22	6	16	
	4	6	4	4	3	4	14	20	6	13	
	5	15	3	3	2	3	14	18	5	13	
	6	21	3	3	2	3	11	15	5	12	
	7	27	3	3	2	2	7	14	4	11	
	8	28	3	3	1	2	5	13	4	9	
	9	29	3	3	1	2	4	9	4	8	
30	1	2	4	2	3	4	24	16	22	9	
	2	3	4	2	3	4	23	14	19	9	
	3	14	4	2	3	4	23	14	16	9	
	4	16	4	2	3	3	23	14	16	9	
	5	20	4	1	2	2	22	12	11	9	
	6	23	4	1	2	2	22	12	8	9	
	7	26	4	1	2	2	22	12	7	9	
	8	27	4	1	2	1	21	11	6	9	
	9	29	4	1	2	1	21	10	2	9	
31	1	1	2	3	4	3	19	14	29	23	
	2	6	1	3	4	3	19	12	27	22	
	3	7	1	3	4	3	18	12	27	20	
	4	10	1	3	4	3	17	11	26	19	
	5	13	1	3	4	3	17	11	25	19	
	6	26	1	3	4	3	16	10	22	17	
	7	27	1	3	4	3	15	10	22	16	
	8	28	1	3	4	3	15	9	20	16	
	9	30	1	3	4	3	14	9	19	15	
32	1	1	3	2	4	4	26	27	16	18	
	2	7	2	1	4	4	22	24	14	18	
	3	14	2	1	4	4	20	21	14	17	
	4	15	2	1	4	4	18	19	12	14	
	5	20	2	1	4	3	18	17	11	14	
	6	23	2	1	4	3	15	12	9	13	
	7	25	2	1	4	3	13	9	7	11	
	8	26	2	1	4	3	11	8	7	10	
	9	27	2	1	4	3	10	5	4	8	
33	1	4	2	5	3	4	11	14	9	12	
	2	12	1	4	3	4	11	14	9	12	
	3	14	1	4	3	4	11	14	9	11	
	4	14	1	4	3	3	11	14	8	13	
	5	15	1	4	3	3	11	14	8	12	
	6	16	1	3	3	2	11	13	8	12	
	7	26	1	3	3	2	11	13	7	12	
	8	28	1	3	3	1	11	13	7	12	
	9	29	1	3	3	1	11	13	7	11	
34	1	9	5	5	3	5	15	27	28	19	
	2	14	4	4	3	4	14	24	23	17	
	3	15	3	4	3	4	13	23	22	15	
	4	16	3	4	3	4	13	22	20	11	
	5	17	2	4	3	3	12	20	16	10	
	6	18	2	4	3	3	11	19	14	8	
	7	19	1	4	3	3	10	19	12	6	
	8	26	1	4	3	3	10	18	11	5	
	9	27	1	4	3	3	9	17	10	3	
35	1	2	2	4	1	5	19	29	24	28	
	2	3	2	3	1	5	15	26	23	27	
	3	4	2	3	1	5	14	24	21	27	
	4	5	2	3	1	5	12	23	20	26	
	5	7	2	3	1	5	9	22	18	25	
	6	16	2	3	1	5	7	20	18	23	
	7	20	2	3	1	5	7	19	17	22	
	8	28	2	3	1	5	3	18	15	22	
	9	29	2	3	1	5	2	17	13	21	
36	1	8	4	4	4	2	20	23	17	17	
	2	10	4	4	4	2	20	23	16	17	
	3	13	4	4	3	2	19	20	16	16	
	4	14	4	3	3	2	17	20	16	15	
	5	22	4	3	3	2	16	19	16	15	
	6	24	4	3	2	1	16	17	16	14	
	7	25	4	3	2	1	14	14	16	14	
	8	26	4	2	1	1	13	14	16	13	
	9	28	4	2	1	1	13	13	16	13	
37	1	1	4	4	3	4	23	24	19	24	
	2	2	3	4	2	3	22	22	19	22	
	3	7	3	4	2	3	19	20	18	20	
	4	8	3	4	2	2	17	19	18	17	
	5	14	3	3	2	2	17	15	17	15	
	6	17	3	3	1	2	16	14	16	15	
	7	20	3	3	1	1	13	13	16	13	
	8	21	3	3	1	1	12	10	16	9	
	9	29	3	3	1	1	10	9	15	9	
38	1	3	3	5	2	2	23	14	19	16	
	2	4	2	5	1	2	22	14	19	15	
	3	6	2	5	1	2	19	14	18	15	
	4	8	2	5	1	2	15	14	16	14	
	5	9	1	5	1	2	14	14	14	14	
	6	13	1	5	1	2	10	14	14	14	
	7	15	1	5	1	2	8	14	11	13	
	8	19	1	5	1	2	5	14	10	12	
	9	28	1	5	1	2	1	14	10	12	
39	1	1	5	4	4	1	29	22	26	25	
	2	6	5	4	3	1	25	20	24	21	
	3	8	5	4	3	1	24	19	21	20	
	4	13	5	4	3	1	23	19	17	18	
	5	15	5	3	2	1	21	17	15	17	
	6	16	5	3	2	1	19	16	11	14	
	7	20	5	3	1	1	17	15	9	13	
	8	29	5	3	1	1	16	15	6	12	
	9	30	5	3	1	1	13	14	2	9	
40	1	3	2	5	4	4	27	16	10	25	
	2	4	1	5	4	3	25	14	10	25	
	3	5	1	5	4	3	25	13	10	23	
	4	6	1	5	4	3	23	13	10	22	
	5	11	1	5	4	3	22	12	10	22	
	6	18	1	5	3	2	21	10	10	20	
	7	20	1	5	3	2	19	10	10	20	
	8	24	1	5	3	2	17	9	10	19	
	9	26	1	5	3	2	17	8	10	18	
41	1	4	3	3	5	2	30	20	21	27	
	2	5	2	3	4	1	27	18	21	25	
	3	7	2	3	4	1	23	17	20	22	
	4	11	2	3	4	1	19	15	18	20	
	5	12	2	2	3	1	19	14	18	18	
	6	13	1	2	3	1	15	11	16	18	
	7	14	1	2	3	1	13	10	16	15	
	8	16	1	2	3	1	11	9	15	14	
	9	28	1	2	3	1	9	8	14	12	
42	1	1	4	3	5	5	16	21	9	16	
	2	15	4	3	4	4	15	20	8	15	
	3	16	4	3	4	4	15	19	8	14	
	4	18	3	3	4	3	13	17	7	12	
	5	19	3	3	4	3	12	14	5	11	
	6	20	3	3	4	2	12	13	4	9	
	7	21	3	3	4	1	11	13	3	9	
	8	22	2	3	4	1	9	11	3	7	
	9	24	2	3	4	1	9	9	1	6	
43	1	3	3	3	2	2	16	9	21	25	
	2	15	3	2	2	2	15	8	20	24	
	3	16	3	2	2	2	15	7	18	24	
	4	23	3	2	2	2	13	6	18	23	
	5	24	3	2	2	2	12	6	15	21	
	6	26	3	2	2	2	12	5	15	19	
	7	28	3	2	2	2	10	4	13	17	
	8	29	3	2	2	2	10	4	10	16	
	9	30	3	2	2	2	8	3	10	16	
44	1	1	3	3	4	5	27	24	26	21	
	2	2	3	3	4	4	25	23	23	19	
	3	8	3	3	4	3	22	21	21	16	
	4	9	3	3	4	3	18	17	19	16	
	5	10	2	3	3	3	16	16	18	14	
	6	11	2	3	3	2	14	14	16	12	
	7	12	2	3	3	2	9	12	15	9	
	8	17	2	3	3	1	6	10	14	9	
	9	19	2	3	3	1	6	9	11	7	
45	1	1	3	3	5	3	29	24	17	13	
	2	6	3	3	5	3	27	23	16	10	
	3	9	3	3	5	3	26	23	16	9	
	4	18	3	3	5	3	24	23	15	9	
	5	20	3	3	5	2	24	23	15	7	
	6	23	3	3	5	2	22	22	15	7	
	7	26	3	3	5	1	21	22	14	5	
	8	27	3	3	5	1	21	22	14	4	
	9	28	3	3	5	1	20	22	14	4	
46	1	2	2	2	4	3	15	28	18	22	
	2	8	2	2	3	3	14	26	17	20	
	3	9	2	2	3	3	13	26	17	17	
	4	11	2	2	3	3	11	26	16	16	
	5	12	2	1	3	3	9	25	15	14	
	6	14	2	1	3	3	7	24	15	12	
	7	16	2	1	3	3	5	24	15	9	
	8	21	2	1	3	3	2	24	14	7	
	9	26	2	1	3	3	1	23	13	5	
47	1	1	5	4	4	4	25	24	19	26	
	2	4	5	4	4	4	23	23	17	24	
	3	10	5	4	4	4	23	22	16	23	
	4	11	5	4	4	4	23	22	15	22	
	5	12	5	4	4	4	21	21	15	22	
	6	17	5	4	4	4	21	21	14	21	
	7	18	5	4	4	4	21	21	12	21	
	8	25	5	4	4	4	19	20	12	20	
	9	29	5	4	4	4	19	20	10	19	
48	1	2	5	5	5	1	8	25	19	6	
	2	6	4	4	4	1	7	25	18	6	
	3	14	4	4	4	1	7	25	18	5	
	4	17	4	4	4	1	6	25	18	5	
	5	18	3	3	4	1	4	25	18	5	
	6	23	3	3	3	1	4	25	18	5	
	7	24	2	3	3	1	2	25	18	4	
	8	25	2	3	3	1	1	25	18	4	
	9	27	2	3	3	1	1	25	18	3	
49	1	9	5	2	4	5	5	29	13	10	
	2	10	4	2	3	4	4	25	12	10	
	3	12	4	2	3	4	4	24	11	10	
	4	17	4	2	3	4	3	22	10	10	
	5	20	3	2	3	4	3	17	8	9	
	6	21	3	2	2	4	3	17	7	9	
	7	22	3	2	2	4	2	14	6	9	
	8	24	3	2	2	4	1	10	6	9	
	9	27	3	2	2	4	1	9	4	9	
50	1	3	2	5	5	2	20	22	23	17	
	2	5	2	4	4	2	20	22	20	16	
	3	7	2	4	4	2	19	21	19	15	
	4	12	2	3	3	2	18	21	16	14	
	5	15	2	3	3	2	18	20	13	13	
	6	19	2	3	2	2	18	20	10	13	
	7	24	2	3	1	2	17	20	8	13	
	8	25	2	2	1	2	16	19	8	11	
	9	26	2	2	1	2	16	19	5	11	
51	1	7	3	2	3	2	25	25	18	8	
	2	9	3	1	3	1	23	24	17	8	
	3	11	3	1	3	1	20	24	17	7	
	4	16	3	1	3	1	17	24	16	6	
	5	19	3	1	3	1	13	24	14	6	
	6	24	3	1	3	1	12	24	12	5	
	7	25	3	1	3	1	9	24	11	4	
	8	27	3	1	3	1	5	24	9	3	
	9	29	3	1	3	1	3	24	9	3	
52	1	12	4	4	4	3	20	17	20	24	
	2	14	4	4	4	3	19	16	19	20	
	3	15	4	4	3	3	18	16	18	20	
	4	16	4	3	3	3	15	16	17	17	
	5	19	4	3	3	3	12	15	17	16	
	6	20	4	3	2	3	11	15	16	14	
	7	23	4	3	2	3	8	15	15	13	
	8	25	4	2	1	3	4	15	13	12	
	9	27	4	2	1	3	3	15	13	10	
53	1	3	4	4	4	4	25	23	14	27	
	2	4	4	4	4	4	24	20	12	26	
	3	5	4	4	4	4	22	19	11	23	
	4	9	4	4	4	4	21	19	9	21	
	5	10	4	4	3	4	19	16	9	20	
	6	17	4	4	3	3	19	16	8	19	
	7	19	4	4	3	3	16	14	7	18	
	8	21	4	4	2	3	15	14	5	15	
	9	30	4	4	2	3	15	13	4	15	
54	1	2	2	3	4	2	19	28	4	26	
	2	3	1	3	4	2	18	27	3	25	
	3	10	1	3	4	2	18	27	3	24	
	4	11	1	2	4	2	17	27	3	24	
	5	13	1	2	4	2	17	26	3	23	
	6	17	1	2	4	2	17	26	3	22	
	7	21	1	1	4	2	17	26	3	22	
	8	24	1	1	4	2	16	26	3	21	
	9	25	1	1	4	2	16	26	3	20	
55	1	2	4	3	4	4	19	22	11	9	
	2	3	3	3	4	3	17	18	10	8	
	3	6	3	3	4	3	15	17	8	8	
	4	10	3	3	4	3	13	15	7	8	
	5	12	3	3	4	3	12	13	6	8	
	6	13	2	3	4	3	12	9	6	8	
	7	14	2	3	4	3	9	7	4	8	
	8	17	2	3	4	3	9	4	4	8	
	9	24	2	3	4	3	8	4	3	8	
56	1	2	5	4	4	3	28	24	25	24	
	2	4	4	3	4	3	27	22	25	20	
	3	11	4	3	4	3	25	22	24	19	
	4	13	4	3	4	3	25	20	23	18	
	5	15	3	3	3	2	24	17	22	14	
	6	16	3	2	3	2	22	17	21	13	
	7	18	2	2	3	2	21	16	20	10	
	8	25	2	2	3	1	20	14	18	10	
	9	26	2	2	3	1	20	13	17	7	
57	1	1	2	3	3	3	29	11	24	26	
	2	2	1	3	3	3	25	10	24	26	
	3	5	1	3	3	3	25	10	18	25	
	4	6	1	3	3	3	23	10	16	24	
	5	10	1	3	2	3	20	10	15	24	
	6	13	1	2	2	3	16	9	10	23	
	7	20	1	2	1	3	16	9	7	22	
	8	25	1	2	1	3	11	9	5	21	
	9	26	1	2	1	3	11	9	4	21	
58	1	1	3	4	2	4	20	15	26	28	
	2	4	3	3	2	4	18	14	24	26	
	3	5	3	3	2	4	16	13	22	26	
	4	8	3	2	2	3	14	13	19	23	
	5	10	3	2	1	3	13	12	17	22	
	6	11	3	2	1	2	11	10	17	21	
	7	25	3	2	1	2	10	10	16	20	
	8	26	3	1	1	1	7	8	13	17	
	9	30	3	1	1	1	5	8	11	16	
59	1	2	4	5	2	4	27	11	16	27	
	2	3	3	4	2	4	25	10	15	27	
	3	4	3	4	2	4	22	8	12	27	
	4	16	3	4	2	4	17	7	10	27	
	5	21	2	3	1	4	16	7	9	27	
	6	22	2	3	1	4	13	7	8	27	
	7	23	1	2	1	4	9	5	6	27	
	8	27	1	2	1	4	7	5	3	27	
	9	28	1	2	1	4	4	4	2	27	
60	1	1	5	4	2	5	28	26	23	20	
	2	3	4	4	2	5	25	21	21	18	
	3	4	4	4	2	5	23	21	19	18	
	4	5	3	4	2	5	21	16	16	17	
	5	6	3	4	2	5	19	13	14	17	
	6	9	3	3	2	5	17	11	13	16	
	7	24	3	3	2	5	16	10	10	15	
	8	25	2	3	2	5	15	7	7	15	
	9	26	2	3	2	5	13	6	7	14	
61	1	2	1	4	4	4	23	5	20	30	
	2	3	1	4	3	4	22	4	17	28	
	3	4	1	3	3	4	19	4	16	28	
	4	12	1	3	2	4	18	4	12	27	
	5	13	1	3	2	4	16	3	10	26	
	6	17	1	2	2	4	14	3	9	25	
	7	19	1	1	1	4	13	3	6	25	
	8	23	1	1	1	4	13	3	5	23	
	9	27	1	1	1	4	10	3	3	23	
62	1	6	4	3	3	3	19	27	13	10	
	2	8	4	3	3	3	18	25	12	9	
	3	9	4	3	3	3	18	25	11	9	
	4	10	4	3	3	3	18	23	10	9	
	5	15	3	3	3	3	16	22	9	8	
	6	18	3	3	3	3	16	21	7	7	
	7	27	3	3	3	3	16	18	6	6	
	8	29	2	3	3	3	14	18	5	5	
	9	30	2	3	3	3	14	17	5	5	
63	1	3	5	4	4	5	16	22	13	15	
	2	4	4	3	4	4	16	22	12	15	
	3	10	3	3	4	4	16	22	11	13	
	4	16	3	2	4	4	16	21	10	12	
	5	18	2	2	3	4	15	21	9	12	
	6	19	2	2	3	4	15	21	7	12	
	7	20	1	2	3	4	15	21	7	10	
	8	25	1	1	2	4	14	20	5	10	
	9	26	1	1	2	4	14	20	5	9	
64	1	7	1	5	5	2	22	15	9	24	
	2	9	1	5	4	1	20	14	8	24	
	3	16	1	5	3	1	20	13	8	22	
	4	18	1	5	3	1	18	13	7	19	
	5	23	1	5	3	1	18	12	6	19	
	6	25	1	5	2	1	17	11	6	16	
	7	26	1	5	2	1	16	10	5	14	
	8	27	1	5	1	1	15	8	4	12	
	9	28	1	5	1	1	15	8	4	11	
65	1	6	3	4	5	3	24	14	15	20	
	2	12	3	4	4	3	24	12	14	18	
	3	12	3	4	4	3	24	12	12	19	
	4	13	3	4	4	3	24	12	12	18	
	5	16	3	4	4	3	24	11	11	17	
	6	17	3	4	3	3	24	11	9	16	
	7	19	3	4	3	3	24	10	8	16	
	8	20	3	4	3	3	24	10	5	16	
	9	25	3	4	3	3	24	9	5	15	
66	1	7	5	4	5	1	17	9	25	25	
	2	8	5	3	4	1	16	7	25	24	
	3	10	5	3	4	1	15	7	25	23	
	4	15	5	3	4	1	14	7	25	23	
	5	16	5	2	4	1	13	6	25	23	
	6	23	5	2	4	1	13	5	25	22	
	7	25	5	2	4	1	13	5	25	21	
	8	27	5	2	4	1	11	4	25	21	
	9	28	5	2	4	1	11	3	25	21	
67	1	3	5	3	3	5	21	13	23	24	
	2	4	4	2	3	4	17	12	22	22	
	3	8	4	2	3	4	15	10	17	22	
	4	10	4	2	3	4	15	10	15	20	
	5	11	4	2	3	3	12	9	13	19	
	6	13	4	2	2	3	9	9	10	18	
	7	17	4	2	2	3	8	8	7	18	
	8	19	4	2	2	3	6	7	6	17	
	9	30	4	2	2	3	3	6	3	16	
68	1	1	1	4	3	3	27	19	21	14	
	2	6	1	4	2	3	26	18	20	12	
	3	8	1	4	2	3	22	16	19	10	
	4	9	1	4	2	3	21	16	18	10	
	5	15	1	4	2	3	18	14	17	7	
	6	16	1	4	2	3	17	12	16	7	
	7	19	1	4	2	3	12	11	14	5	
	8	23	1	4	2	3	10	11	14	4	
	9	26	1	4	2	3	8	9	12	4	
69	1	3	5	1	3	4	29	23	11	16	
	2	10	5	1	3	4	27	20	10	14	
	3	11	5	1	3	4	26	19	10	12	
	4	12	5	1	3	3	24	16	9	10	
	5	13	5	1	2	3	23	14	8	9	
	6	14	5	1	2	2	22	12	6	7	
	7	21	5	1	1	2	21	11	6	5	
	8	23	5	1	1	1	21	8	5	5	
	9	24	5	1	1	1	19	8	4	2	
70	1	4	2	1	1	2	13	15	15	16	
	2	8	1	1	1	2	12	14	14	16	
	3	10	1	1	1	2	12	12	13	16	
	4	11	1	1	1	2	12	11	11	16	
	5	16	1	1	1	1	12	9	11	15	
	6	17	1	1	1	1	11	9	10	15	
	7	24	1	1	1	1	11	7	8	14	
	8	27	1	1	1	1	11	6	6	14	
	9	29	1	1	1	1	11	5	5	14	
71	1	3	3	5	5	3	17	8	17	15	
	2	4	2	4	4	3	16	7	16	15	
	3	5	2	4	3	3	15	6	14	15	
	4	6	2	4	3	3	15	6	13	14	
	5	8	1	4	3	3	14	5	12	14	
	6	14	1	4	2	3	14	5	12	14	
	7	23	1	4	1	3	12	5	11	13	
	8	24	1	4	1	3	12	4	9	13	
	9	25	1	4	1	3	11	4	9	13	
72	1	4	1	5	3	1	23	14	30	21	
	2	8	1	4	2	1	19	13	25	19	
	3	9	1	4	2	1	18	13	25	19	
	4	10	1	4	2	1	15	13	23	18	
	5	17	1	3	2	1	15	13	20	17	
	6	20	1	3	2	1	13	13	17	17	
	7	21	1	3	2	1	10	13	16	17	
	8	23	1	3	2	1	7	13	14	15	
	9	28	1	3	2	1	6	13	10	15	
73	1	11	2	3	3	1	22	27	20	25	
	2	12	1	3	3	1	21	25	16	24	
	3	15	1	3	3	1	19	25	15	22	
	4	16	1	3	3	1	17	24	14	18	
	5	17	1	3	3	1	14	24	11	14	
	6	22	1	3	2	1	14	23	11	14	
	7	28	1	3	2	1	11	23	7	12	
	8	29	1	3	2	1	10	23	7	7	
	9	30	1	3	2	1	6	22	5	6	
74	1	5	3	4	5	2	20	21	19	7	
	2	6	2	4	4	2	18	21	18	6	
	3	10	2	4	4	2	18	19	17	6	
	4	11	2	4	4	2	15	18	16	6	
	5	16	1	3	3	2	13	16	14	5	
	6	17	1	3	3	2	13	16	13	5	
	7	18	1	2	3	2	11	15	12	4	
	8	24	1	2	3	2	10	13	12	4	
	9	28	1	2	3	2	8	13	10	4	
75	1	1	2	2	3	4	21	26	28	9	
	2	2	1	2	3	4	20	26	25	9	
	3	6	1	2	3	4	20	22	24	9	
	4	12	1	2	3	4	18	20	22	9	
	5	13	1	2	3	4	16	20	20	9	
	6	15	1	2	3	4	14	19	18	8	
	7	16	1	2	3	4	14	15	16	8	
	8	17	1	2	3	4	11	13	13	8	
	9	30	1	2	3	4	11	13	12	8	
76	1	3	4	5	3	2	24	24	11	15	
	2	5	4	5	2	2	23	22	11	14	
	3	11	4	5	2	2	23	22	9	14	
	4	15	4	5	2	2	23	21	9	14	
	5	16	3	5	2	2	23	19	6	14	
	6	17	3	5	1	2	23	19	6	14	
	7	20	3	5	1	2	23	17	4	14	
	8	22	3	5	1	2	23	17	3	14	
	9	30	3	5	1	2	23	16	1	14	
77	1	1	2	3	1	5	25	20	23	27	
	2	2	1	3	1	4	23	18	22	24	
	3	4	1	3	1	4	23	16	21	22	
	4	10	1	3	1	4	22	15	20	20	
	5	20	1	3	1	4	22	13	20	18	
	6	21	1	3	1	4	21	13	19	16	
	7	22	1	3	1	4	20	11	19	12	
	8	26	1	3	1	4	19	10	18	9	
	9	28	1	3	1	4	19	9	17	6	
78	1	1	2	3	3	4	28	29	29	22	
	2	3	1	3	2	4	27	27	26	19	
	3	4	1	3	2	4	23	27	25	16	
	4	9	1	3	2	4	23	26	23	15	
	5	14	1	3	2	4	21	25	23	12	
	6	21	1	3	1	4	18	25	20	10	
	7	22	1	3	1	4	16	25	20	8	
	8	23	1	3	1	4	16	24	17	3	
	9	27	1	3	1	4	13	23	15	2	
79	1	7	3	3	5	4	30	27	29	8	
	2	12	3	2	4	4	25	27	28	7	
	3	17	3	2	4	4	25	25	27	7	
	4	20	3	2	3	4	22	22	25	6	
	5	21	3	2	3	4	18	18	25	6	
	6	23	3	2	2	4	17	16	24	6	
	7	25	3	2	1	4	12	13	24	5	
	8	27	3	2	1	4	12	13	22	5	
	9	30	3	2	1	4	9	10	22	4	
80	1	6	4	3	2	4	26	25	25	23	
	2	7	4	3	1	3	25	23	25	22	
	3	10	4	3	1	3	25	21	21	22	
	4	17	4	3	1	2	25	21	19	22	
	5	18	3	2	1	2	25	19	15	21	
	6	19	3	2	1	2	25	19	14	21	
	7	26	3	2	1	2	25	17	11	21	
	8	27	2	1	1	1	25	16	6	21	
	9	30	2	1	1	1	25	15	4	21	
81	1	2	3	5	2	3	15	23	17	22	
	2	3	3	4	2	3	15	23	15	21	
	3	15	3	4	2	3	13	19	14	21	
	4	18	3	4	2	3	13	18	12	21	
	5	19	3	4	2	3	11	17	10	21	
	6	20	3	3	2	3	9	15	8	21	
	7	21	3	3	2	3	9	11	8	21	
	8	27	3	3	2	3	7	9	7	21	
	9	28	3	3	2	3	6	9	5	21	
82	1	5	4	5	5	3	23	4	18	10	
	2	9	3	5	4	3	21	4	16	10	
	3	13	3	5	3	3	21	4	15	10	
	4	16	3	5	3	3	21	4	12	10	
	5	19	3	5	3	3	20	4	10	9	
	6	21	3	5	2	3	19	4	9	9	
	7	22	3	5	2	3	19	4	5	9	
	8	24	3	5	1	3	19	4	4	9	
	9	26	3	5	1	3	18	4	3	9	
83	1	2	3	4	5	1	25	29	8	14	
	2	3	2	3	4	1	23	27	7	14	
	3	6	2	3	4	1	23	27	7	13	
	4	7	2	3	4	1	19	26	7	13	
	5	15	2	3	4	1	18	26	6	11	
	6	16	2	3	4	1	15	25	5	11	
	7	18	2	3	4	1	15	24	5	11	
	8	24	2	3	4	1	13	24	5	9	
	9	29	2	3	4	1	11	23	4	9	
84	1	1	4	1	4	4	23	17	29	12	
	2	5	4	1	3	4	21	16	28	11	
	3	6	3	1	3	4	21	15	24	10	
	4	10	3	1	3	4	20	14	24	10	
	5	11	2	1	2	3	20	12	21	9	
	6	17	2	1	2	3	20	12	19	8	
	7	18	1	1	1	3	19	10	19	6	
	8	27	1	1	1	2	18	10	15	6	
	9	28	1	1	1	2	18	8	14	4	
85	1	1	3	4	3	5	14	23	8	21	
	2	2	3	4	3	4	12	21	8	21	
	3	5	3	4	3	3	12	21	7	20	
	4	9	3	4	3	3	11	19	5	20	
	5	10	3	4	3	3	11	18	5	18	
	6	11	2	4	3	2	11	17	5	18	
	7	13	2	4	3	1	10	16	4	17	
	8	23	2	4	3	1	9	16	3	17	
	9	29	2	4	3	1	9	15	2	16	
86	1	5	4	4	3	3	23	17	29	16	
	2	9	3	4	3	3	22	15	26	15	
	3	15	3	4	3	3	21	14	23	11	
	4	17	3	4	3	3	21	13	19	10	
	5	20	3	4	3	3	19	13	15	8	
	6	21	3	4	2	2	18	12	13	8	
	7	22	3	4	2	2	18	12	11	4	
	8	25	3	4	2	2	17	10	9	3	
	9	29	3	4	2	2	16	10	4	1	
87	1	1	3	2	3	2	19	13	10	19	
	2	4	3	1	2	2	18	12	9	19	
	3	5	3	1	2	2	15	12	9	18	
	4	11	3	1	2	2	15	11	9	18	
	5	17	3	1	2	1	11	11	9	17	
	6	18	2	1	2	1	9	10	9	16	
	7	20	2	1	2	1	6	10	9	16	
	8	24	2	1	2	1	4	9	9	15	
	9	25	2	1	2	1	3	9	9	15	
88	1	13	4	2	4	3	23	15	29	13	
	2	14	3	2	3	3	22	14	26	12	
	3	16	3	2	3	3	21	14	25	10	
	4	17	3	2	3	2	21	12	24	10	
	5	18	2	2	3	2	20	11	23	9	
	6	21	2	2	2	2	19	10	22	8	
	7	22	1	2	2	1	18	9	20	7	
	8	23	1	2	2	1	17	8	18	7	
	9	27	1	2	2	1	15	8	17	6	
89	1	4	2	2	3	5	26	24	20	18	
	2	8	1	1	2	4	21	21	20	17	
	3	10	1	1	2	4	19	19	18	16	
	4	11	1	1	2	4	18	17	17	12	
	5	13	1	1	1	4	15	14	17	11	
	6	24	1	1	1	4	11	10	17	10	
	7	27	1	1	1	4	9	10	15	7	
	8	28	1	1	1	4	5	7	14	5	
	9	29	1	1	1	4	2	4	14	4	
90	1	2	5	4	2	3	26	28	17	26	
	2	3	4	3	2	2	22	27	16	25	
	3	4	4	3	2	2	22	26	16	25	
	4	5	4	3	2	2	20	26	16	25	
	5	8	4	2	2	2	18	25	15	24	
	6	16	4	2	2	2	14	23	15	23	
	7	20	4	1	2	2	12	22	14	23	
	8	24	4	1	2	2	11	21	13	23	
	9	30	4	1	2	2	10	21	13	22	
91	1	6	4	4	4	3	17	16	28	8	
	2	7	4	3	4	3	17	13	28	7	
	3	11	4	3	4	3	15	13	26	7	
	4	12	4	3	3	3	14	11	25	7	
	5	13	3	3	3	3	13	10	24	6	
	6	14	3	3	3	3	11	9	23	6	
	7	19	2	3	2	3	11	9	23	6	
	8	24	2	3	2	3	10	7	21	6	
	9	30	2	3	2	3	9	6	21	6	
92	1	6	2	2	5	4	24	12	14	24	
	2	7	2	1	4	4	21	12	13	23	
	3	10	2	1	4	4	19	11	13	23	
	4	16	2	1	4	4	15	10	12	22	
	5	20	1	1	4	4	12	8	11	22	
	6	22	1	1	4	4	9	8	11	21	
	7	26	1	1	4	4	7	7	11	21	
	8	29	1	1	4	4	5	6	10	19	
	9	30	1	1	4	4	2	5	10	19	
93	1	7	4	4	5	1	17	6	22	19	
	2	9	4	4	4	1	16	5	19	16	
	3	10	4	4	4	1	16	5	18	15	
	4	11	3	4	4	1	15	5	17	14	
	5	12	3	4	4	1	15	5	17	11	
	6	13	3	4	4	1	15	4	15	11	
	7	17	3	4	4	1	15	4	14	9	
	8	29	2	4	4	1	14	4	13	8	
	9	30	2	4	4	1	14	4	13	7	
94	1	3	4	3	5	5	30	13	13	21	
	2	4	4	2	4	4	24	13	13	19	
	3	15	4	2	4	4	23	13	11	18	
	4	16	4	2	4	4	22	13	10	16	
	5	21	4	2	3	4	17	12	9	15	
	6	22	4	2	3	3	15	12	8	15	
	7	24	4	2	3	3	14	12	8	13	
	8	26	4	2	2	3	11	11	7	13	
	9	27	4	2	2	3	8	11	6	11	
95	1	1	3	2	4	3	25	25	30	26	
	2	2	3	1	4	2	22	25	24	26	
	3	6	3	1	4	2	20	25	23	24	
	4	8	3	1	4	2	18	25	17	23	
	5	10	3	1	3	2	16	25	14	23	
	6	11	3	1	3	1	14	25	12	22	
	7	12	3	1	3	1	14	25	8	21	
	8	19	3	1	3	1	12	25	7	20	
	9	28	3	1	3	1	9	25	1	19	
96	1	1	5	4	1	3	18	29	24	18	
	2	2	4	4	1	3	18	27	23	17	
	3	8	4	4	1	3	18	27	22	17	
	4	12	3	4	1	3	18	26	18	16	
	5	16	3	3	1	3	17	26	17	16	
	6	19	3	3	1	3	17	25	16	16	
	7	24	3	2	1	3	17	25	12	16	
	8	25	2	2	1	3	16	24	10	15	
	9	26	2	2	1	3	16	24	8	15	
97	1	3	5	2	4	4	10	23	20	7	
	2	7	4	1	3	4	10	19	18	7	
	3	17	3	1	3	4	10	18	17	7	
	4	18	3	1	3	4	9	14	15	7	
	5	25	3	1	3	4	9	13	15	7	
	6	26	2	1	2	4	9	11	13	7	
	7	27	1	1	2	4	9	9	13	7	
	8	28	1	1	2	4	8	7	12	7	
	9	30	1	1	2	4	8	6	10	7	
98	1	4	1	4	4	5	21	26	8	14	
	2	5	1	4	4	4	21	25	8	14	
	3	6	1	4	4	4	20	24	8	12	
	4	7	1	4	4	4	19	22	8	12	
	5	17	1	4	4	3	17	21	8	10	
	6	18	1	4	4	3	15	19	8	10	
	7	25	1	4	4	3	14	18	8	9	
	8	26	1	4	4	3	13	18	8	7	
	9	28	1	4	4	3	11	17	8	6	
99	1	3	5	1	5	2	20	26	14	27	
	2	8	4	1	4	2	18	25	13	24	
	3	9	4	1	4	2	17	24	12	21	
	4	10	4	1	4	2	17	24	11	20	
	5	14	4	1	4	2	15	23	11	19	
	6	15	3	1	4	2	14	22	10	16	
	7	17	3	1	4	2	13	21	10	14	
	8	22	3	1	4	2	12	20	8	13	
	9	25	3	1	4	2	10	19	8	12	
100	1	5	2	4	3	4	30	26	30	22	
	2	7	2	4	3	4	29	23	28	20	
	3	12	2	3	3	3	28	22	28	18	
	4	15	2	3	2	3	28	17	27	18	
	5	16	1	2	2	3	27	13	26	14	
	6	22	1	2	2	2	26	13	26	13	
	7	23	1	2	1	2	26	10	25	12	
	8	24	1	1	1	1	26	4	23	9	
	9	25	1	1	1	1	25	4	23	9	
101	1	1	2	4	5	5	27	19	25	26	
	2	2	2	4	4	4	25	18	25	25	
	3	3	2	4	4	4	22	16	25	24	
	4	5	2	4	3	4	20	15	24	23	
	5	10	2	3	3	3	15	11	24	23	
	6	12	2	3	2	3	12	11	24	22	
	7	15	2	3	1	3	11	9	23	20	
	8	16	2	3	1	2	10	7	23	20	
	9	23	2	3	1	2	6	5	23	19	
102	1	0	0	0	0	0	0	0	0	0	
************************************************************************

 RESOURCE AVAILABILITIES 
	R 1	R 2	R 3	R 4	N 1	N 2	N 3	N 4
	52	53	54	53	1645	1627	1489	1542

************************************************************************
